Solver command line: ['C:\\Program Files\\IBM\\ILOG\\CPLEX_Studio2211\\cplex\\bin\\x64_win64\\cplex.exe']


Welcome to IBM(R) ILOG(R) CPLEX(R) Interactive Optimizer 22.1.1.0
  with Simplex, Mixed Integer & Barrier Optimizers
5725-A06 5725-A29 5724-Y48 5724-Y49 5724-Y54 5724-Y55 5655-Y21
Copyright IBM Corp. 1988, 2022.  All Rights Reserved.

Type 'help' for a list of available commands.
Type 'help' followed by a command name for more
information on commands.

CPLEX> Logfile 'cplex.log' closed.
Logfile 'C:\Users\wangy\Documents\GitHub\re_optimization\result_site_specific\tmpt9q5t3ie.cplex.log' open.
CPLEX> Problem 'C:\Users\wangy\Documents\GitHub\re_optimization\result_site_specific\tmp5zoql29y.pyomo.lp' read.
Read time = 0.28 sec. (9.13 ticks)
CPLEX> Problem name         : C:\Users\wangy\Documents\GitHub\re_optimization\result_site_specific\tmp5zoql29y.pyomo.lp
Objective sense      : Minimize
Variables            :   65769  [Nneg: 35068,  Free: 8792,  Binary: 9,
                                 Other: 21900]
Objective nonzeros   :      17
Linear constraints   :   87665  [Less: 46741,  Greater: 5,  Equal: 40919]
  Nonzeros           :  225089
  RHS nonzeros       :    3721

Variables            : Min LB: 0.000000         Max UB: 1.000000       
Objective nonzeros   : Min   : 1.000000         Max   : 1.000000       
Linear constraints   :
  Nonzeros           : Min   : 0.001653059      Max   : 100000.0       
  RHS nonzeros       : Min   : 0.02800000       Max   : 100000.0       
CPLEX> Version identifier: 22.1.1.0 | 2022-11-27 | 9160aff4d
Tried aggregator 3 times.
MIP Presolve eliminated 52842 rows and 32400 columns.
Aggregator did 10282 substitutions.
Reduced MIP has 24541 rows, 23087 columns, and 73480 nonzeros.
Reduced MIP has 5 binaries, 0 generals, 0 SOSs, and 0 indicators.
Presolve time = 0.20 sec. (225.67 ticks)
Found incumbent of value 313326.781653 after 0.30 sec. (316.01 ticks)
Probing time = 0.00 sec. (1.38 ticks)
Tried aggregator 1 time.
Detecting symmetries...
Reduced MIP has 24541 rows, 23087 columns, and 73480 nonzeros.
Reduced MIP has 5 binaries, 0 generals, 0 SOSs, and 0 indicators.
Presolve time = 0.03 sec. (46.98 ticks)
Probing time = 0.00 sec. (1.27 ticks)
MIP emphasis: balance optimality and feasibility.
MIP search method: dynamic search.
Parallel mode: deterministic, using up to 16 threads.
Root relaxation solution time = 1.16 sec. (735.35 ticks)

        Nodes                                         Cuts/
   Node  Left     Objective  IInf  Best Integer    Best Bound    ItCnt     Gap

*     0+    0                       313326.7817   -13439.6889           104.29%
      0     0     9900.3692     1   313326.7817     9900.3692       51   96.84%
*     0+    0                        11505.0290     9900.3692            13.95%
*     0+    0                        10514.3045     9900.3692             5.84%
      0     0        cutoff          10514.3045                    518    0.00%
Elapsed time = 1.83 sec. (1569.44 ticks, tree = 0.01 MB, solutions = 3)

Root node processing (before b&c):
  Real time             =    1.84 sec. (1572.62 ticks)
Parallel b&c, 16 threads:
  Real time             =    0.00 sec. (0.00 ticks)
  Sync time (average)   =    0.00 sec.
  Wait time (average)   =    0.00 sec.
                          ------------
Total (root+branch&cut) =    1.84 sec. (1572.62 ticks)

Solution pool: 3 solutions saved.

MIP - Integer optimal solution:  Objective =  1.0514304502e+04
Solution time =    1.84 sec.  Iterations = 518  Nodes = 0
Deterministic time = 1572.81 ticks  (852.93 ticks/sec)

CPLEX> Incumbent solution written to file 'C:\Users\wangy\Documents\GitHub\re_optimization\result_site_specific\tmp4elbybvt.cplex.sol'.
CPLEX> 
